NAME : portcgen-24-3
COMMENT : portcgen N=24, seed=3
TYPE : TSP
DIMENSION : 24
EDGE_WEIGHT_TYPE : EUC_2D
NODE_COORD_SECTION
1 263201 121217
2 -90719 -216926
3 -134832 307134
4 -108276 334684
5 -212929 19522
6 105207 -251593
7 -26517 -275539
8 186498 212884
9 -174014 -277631
10 73515 -187611
11 -175218 -29515
12 164113 302905
13 67746 -25063
14 -288508 -319967
15 -55095 119664
16 111376 71739
17 520068 357498
18 22541 61932
19 123549 108767
20 -360785 -44563
21 -178419 248946
22 -87701 111772
23 -10420 -85363
24 9148 84130
